8 1 5 9 7 4 4 3 2 16 6 6 1 16 3 2 0 14
3 10 5 13 8 3 2 6 6 2 0 9 1 6 7 6 4 10
4 1 7 10 3 15 5 10 2 14 0 8 1 6 8 6 6 5
5 10 2 8 0 5 1 10 3 6 6 1 8 14 7 6 4 6
5 16 6 2 4 10 0 14 7 6 3 8 2 6 1 10 8 9
7 15 5 5 1 5 8 15 3 3 2 6 6 2 4 10 0 15
6 16 4 10 3 10 1 5 7 15 0 14 2 13 8 15 5 2
8 10 0 1 4 3 2 13 3 7 1 15 5 11 7 10 6 9
8 6 6 5 0 9 5 15 3 9 2 9 7 10 1 12 4 10
